benchmarks/bfuzz0/11196226872511930660580237093002825456.smt2
(set-logic QF_FP)
(declare-const x0 (_ FloatingPoint 8 24))
(declare-const x1 (_ FloatingPoint 8 24))
(declare-const x2 (_ FloatingPoint 8 24))
(declare-const x3 (_ FloatingPoint 8 24))
(declare-const x4 (_ FloatingPoint 8 24))
(declare-const x5 (_ FloatingPoint 8 24))
(declare-const x6 (_ FloatingPoint 8 24))
(declare-const x7 (_ FloatingPoint 8 24))
(declare-const x8 (_ FloatingPoint 8 24))
(declare-const x9 (_ FloatingPoint 8 24))
(assert (fp.gt (fp.mul RNE (fp.mul RNE x4 x6) (fp.add RNE x6 x5)) (fp.mul RNE (fp.add RNE x6 x3) (fp.add RNE x7 x1))))
(assert (fp.geq (fp.neg (fp.sub RNE x9 x3)) (fp.sub RNE (fp.add RNE x6 x1) (fp.neg x0))))
(assert (fp.lt (fp.sub RNE (fp.add RNE x6 x1) (fp.neg x4)) (fp.add RNE (fp.sub RNE x8 x3) (fp.mul RNE x0 x5))))
(assert (fp.leq (fp.add RNE (fp.neg x7) (fp.div RNE x0 x1)) (fp.neg (fp.add RNE x5 x4))))
(assert (fp.geq (fp.neg (fp.sub RNE x4 x6)) (fp.div RNE (fp.sub RNE x9 x6) (fp.neg x7))))
(check-sat)
