db/data/11196226872511930660580237093002825456.z3.out
sat
-------------------
13.272830764
